c A SAT instance generated from a 3-CNF formula that had 40 clauses and 10 variables
p cnf 10 40
-4 9 -1 0
-5 8 -7 0
-8 -5 2 0
5 -1 -8 0
-10 6 -3 0
-3 -7 1 0
-8 -3 9 0
1 -6 5 0
-7 -1 -6 0
3 8 5 0
-9 -1 -10 0
3 4 -2 0
10 5 6 0
3 8 -10 0
-9 8 2 0
-3 4 2 0
-1 9 -3 0
-4 -1 -9 0
-4 10 9 0
2 -4 -7 0
-3 2 -5 0
-5 -6 -10 0
10 8 6 0
8 7 9 0
7 2 -10 0
7 -2 8 0
-6 5 7 0
5 9 -1 0
4 5 -1 0
10 4 -5 0
10 -5 1 0
5 -6 -7 0
-7 2 -1 0
-6 7 -3 0
-6 -10 -2 0
-6 -8 -3 0
4 -7 10 0
-2 7 4 0
-3 -10 6 0
-6 -7 4 0
%
0

25 64 39 85 21 17 84 39 62 100
